8731
17, 7, 42, 2, 30, 29, 47, 26, 27, 28, 14, 13, 52, 11, 12, 51, 33, 43, 10, 9, 8, 19, 41, 45, 32, 49, 1, 35, 36, 37, 46, 25, 4, 15, 6, 5, 24, 48, 38, 40, 39, 34, 44, 16, 20, 50, 23, 21, 31, 22, 18, 3
